p cnf 200 2390
1 2 3 4 5 0
6 7 8 9 10 0
11 12 13 14 15 0
16 17 18 19 20 0
21 22 23 24 25 0
26 27 28 29 30 0
31 32 33 34 35 0
36 37 38 39 40 0
41 42 43 44 45 0
46 47 48 49 50 0
51 52 53 54 55 0
56 57 58 59 60 0
61 62 63 64 65 0
66 67 68 69 70 0
71 72 73 74 75 0
76 77 78 79 80 0
81 82 83 84 85 0
86 87 88 89 90 0
91 92 93 94 95 0
96 97 98 99 100 0
101 102 103 104 105 0
106 107 108 109 110 0
111 112 113 114 115 0
116 117 118 119 120 0
121 122 123 124 125 0
126 127 128 129 130 0
131 132 133 134 135 0
136 137 138 139 140 0
141 142 143 144 145 0
146 147 148 149 150 0
151 152 153 154 155 0
156 157 158 159 160 0
161 162 163 164 165 0
166 167 168 169 170 0
171 172 173 174 175 0
176 177 178 179 180 0
181 182 183 184 185 0
186 187 188 189 190 0
191 192 193 194 195 0
196 197 198 199 200 0
-1 -2 0
-1 -3 0
-1 -4 0
-1 -5 0
-2 -3 0
-2 -4 0
-2 -5 0
-3 -4 0
-3 -5 0
-4 -5 0
-6 -7 0
-6 -8 0
-6 -9 0
-6 -10 0
-7 -8 0
-7 -9 0
-7 -10 0
-8 -9 0
-8 -10 0
-9 -10 0
-11 -12 0
-11 -13 0
-11 -14 0
-11 -15 0
-12 -13 0
-12 -14 0
-12 -15 0
-13 -14 0
-13 -15 0
-14 -15 0
-16 -17 0
-16 -18 0
-16 -19 0
-16 -20 0
-17 -18 0
-17 -19 0
-17 -20 0
-18 -19 0
-18 -20 0
-19 -20 0
-21 -22 0
-21 -23 0
-21 -24 0
-21 -25 0
-22 -23 0
-22 -24 0
-22 -25 0
-23 -24 0
-23 -25 0
-24 -25 0
-26 -27 0
-26 -28 0
-26 -29 0
-26 -30 0
-27 -28 0
-27 -29 0
-27 -30 0
-28 -29 0
-28 -30 0
-29 -30 0
-31 -32 0
-31 -33 0
-31 -34 0
-31 -35 0
-32 -33 0
-32 -34 0
-32 -35 0
-33 -34 0
-33 -35 0
-34 -35 0
-36 -37 0
-36 -38 0
-36 -39 0
-36 -40 0
-37 -38 0
-37 -39 0
-37 -40 0
-38 -39 0
-38 -40 0
-39 -40 0
-41 -42 0
-41 -43 0
-41 -44 0
-41 -45 0
-42 -43 0
-42 -44 0
-42 -45 0
-43 -44 0
-43 -45 0
-44 -45 0
-46 -47 0
-46 -48 0
-46 -49 0
-46 -50 0
-47 -48 0
-47 -49 0
-47 -50 0
-48 -49 0
-48 -50 0
-49 -50 0
-51 -52 0
-51 -53 0
-51 -54 0
-51 -55 0
-52 -53 0
-52 -54 0
-52 -55 0
-53 -54 0
-53 -55 0
-54 -55 0
-56 -57 0
-56 -58 0
-56 -59 0
-56 -60 0
-57 -58 0
-57 -59 0
-57 -60 0
-58 -59 0
-58 -60 0
-59 -60 0
-61 -62 0
-61 -63 0
-61 -64 0
-61 -65 0
-62 -63 0
-62 -64 0
-62 -65 0
-63 -64 0
-63 -65 0
-64 -65 0
-66 -67 0
-66 -68 0
-66 -69 0
-66 -70 0
-67 -68 0
-67 -69 0
-67 -70 0
-68 -69 0
-68 -70 0
-69 -70 0
-71 -72 0
-71 -73 0
-71 -74 0
-71 -75 0
-72 -73 0
-72 -74 0
-72 -75 0
-73 -74 0
-73 -75 0
-74 -75 0
-76 -77 0
-76 -78 0
-76 -79 0
-76 -80 0
-77 -78 0
-77 -79 0
-77 -80 0
-78 -79 0
-78 -80 0
-79 -80 0
-81 -82 0
-81 -83 0
-81 -84 0
-81 -85 0
-82 -83 0
-82 -84 0
-82 -85 0
-83 -84 0
-83 -85 0
-84 -85 0
-86 -87 0
-86 -88 0
-86 -89 0
-86 -90 0
-87 -88 0
-87 -89 0
-87 -90 0
-88 -89 0
-88 -90 0
-89 -90 0
-91 -92 0
-91 -93 0
-91 -94 0
-91 -95 0
-92 -93 0
-92 -94 0
-92 -95 0
-93 -94 0
-93 -95 0
-94 -95 0
-96 -97 0
-96 -98 0
-96 -99 0
-96 -100 0
-97 -98 0
-97 -99 0
-97 -100 0
-98 -99 0
-98 -100 0
-99 -100 0
-101 -102 0
-101 -103 0
-101 -104 0
-101 -105 0
-102 -103 0
-102 -104 0
-102 -105 0
-103 -104 0
-103 -105 0
-104 -105 0
-106 -107 0
-106 -108 0
-106 -109 0
-106 -110 0
-107 -108 0
-107 -109 0
-107 -110 0
-108 -109 0
-108 -110 0
-109 -110 0
-111 -112 0
-111 -113 0
-111 -114 0
-111 -115 0
-112 -113 0
-112 -114 0
-112 -115 0
-113 -114 0
-113 -115 0
-114 -115 0
-116 -117 0
-116 -118 0
-116 -119 0
-116 -120 0
-117 -118 0
-117 -119 0
-117 -120 0
-118 -119 0
-118 -120 0
-119 -120 0
-121 -122 0
-121 -123 0
-121 -124 0
-121 -125 0
-122 -123 0
-122 -124 0
-122 -125 0
-123 -124 0
-123 -125 0
-124 -125 0
-126 -127 0
-126 -128 0
-126 -129 0
-126 -130 0
-127 -128 0
-127 -129 0
-127 -130 0
-128 -129 0
-128 -130 0
-129 -130 0
-131 -132 0
-131 -133 0
-131 -134 0
-131 -135 0
-132 -133 0
-132 -134 0
-132 -135 0
-133 -134 0
-133 -135 0
-134 -135 0
-136 -137 0
-136 -138 0
-136 -139 0
-136 -140 0
-137 -138 0
-137 -139 0
-137 -140 0
-138 -139 0
-138 -140 0
-139 -140 0
-141 -142 0
-141 -143 0
-141 -144 0
-141 -145 0
-142 -143 0
-142 -144 0
-142 -145 0
-143 -144 0
-143 -145 0
-144 -145 0
-146 -147 0
-146 -148 0
-146 -149 0
-146 -150 0
-147 -148 0
-147 -149 0
-147 -150 0
-148 -149 0
-148 -150 0
-149 -150 0
-151 -152 0
-151 -153 0
-151 -154 0
-151 -155 0
-152 -153 0
-152 -154 0
-152 -155 0
-153 -154 0
-153 -155 0
-154 -155 0
-156 -157 0
-156 -158 0
-156 -159 0
-156 -160 0
-157 -158 0
-157 -159 0
-157 -160 0
-158 -159 0
-158 -160 0
-159 -160 0
-161 -162 0
-161 -163 0
-161 -164 0
-161 -165 0
-162 -163 0
-162 -164 0
-162 -165 0
-163 -164 0
-163 -165 0
-164 -165 0
-166 -167 0
-166 -168 0
-166 -169 0
-166 -170 0
-167 -168 0
-167 -169 0
-167 -170 0
-168 -169 0
-168 -170 0
-169 -170 0
-171 -172 0
-171 -173 0
-171 -174 0
-171 -175 0
-172 -173 0
-172 -174 0
-172 -175 0
-173 -174 0
-173 -175 0
-174 -175 0
-176 -177 0
-176 -178 0
-176 -179 0
-176 -180 0
-177 -178 0
-177 -179 0
-177 -180 0
-178 -179 0
-178 -180 0
-179 -180 0
-181 -182 0
-181 -183 0
-181 -184 0
-181 -185 0
-182 -183 0
-182 -184 0
-182 -185 0
-183 -184 0
-183 -185 0
-184 -185 0
-186 -187 0
-186 -188 0
-186 -189 0
-186 -190 0
-187 -188 0
-187 -189 0
-187 -190 0
-188 -189 0
-188 -190 0
-189 -190 0
-191 -192 0
-191 -193 0
-191 -194 0
-191 -195 0
-192 -193 0
-192 -194 0
-192 -195 0
-193 -194 0
-193 -195 0
-194 -195 0
-196 -197 0
-196 -198 0
-196 -199 0
-196 -200 0
-197 -198 0
-197 -199 0
-197 -200 0
-198 -199 0
-198 -200 0
-199 -200 0
-1 -6 0
-2 -7 0
-3 -8 0
-4 -9 0
-5 -10 0
-1 -11 0
-2 -12 0
-3 -13 0
-4 -14 0
-5 -15 0
-1 -16 0
-2 -17 0
-3 -18 0
-4 -19 0
-5 -20 0
-1 -26 0
-2 -27 0
-3 -28 0
-4 -29 0
-5 -30 0
-1 -36 0
-2 -37 0
-3 -38 0
-4 -39 0
-5 -40 0
-1 -41 0
-2 -42 0
-3 -43 0
-4 -44 0
-5 -45 0
-1 -51 0
-2 -52 0
-3 -53 0
-4 -54 0
-5 -55 0
-1 -56 0
-2 -57 0
-3 -58 0
-4 -59 0
-5 -60 0
-1 -91 0
-2 -92 0
-3 -93 0
-4 -94 0
-5 -95 0
-1 -101 0
-2 -102 0
-3 -103 0
-4 -104 0
-5 -105 0
-1 -106 0
-2 -107 0
-3 -108 0
-4 -109 0
-5 -110 0
-1 -111 0
-2 -112 0
-3 -113 0
-4 -114 0
-5 -115 0
-1 -116 0
-2 -117 0
-3 -118 0
-4 -119 0
-5 -120 0
-1 -131 0
-2 -132 0
-3 -133 0
-4 -134 0
-5 -135 0
-1 -136 0
-2 -137 0
-3 -138 0
-4 -139 0
-5 -140 0
-1 -141 0
-2 -142 0
-3 -143 0
-4 -144 0
-5 -145 0
-1 -156 0
-2 -157 0
-3 -158 0
-4 -159 0
-5 -160 0
-1 -176 0
-2 -177 0
-3 -178 0
-4 -179 0
-5 -180 0
-1 -186 0
-2 -187 0
-3 -188 0
-4 -189 0
-5 -190 0
-1 -191 0
-2 -192 0
-3 -193 0
-4 -194 0
-5 -195 0
-1 -196 0
-2 -197 0
-3 -198 0
-4 -199 0
-5 -200 0
-6 -26 0
-7 -27 0
-8 -28 0
-9 -29 0
-10 -30 0
-6 -31 0
-7 -32 0
-8 -33 0
-9 -34 0
-10 -35 0
-6 -41 0
-7 -42 0
-8 -43 0
-9 -44 0
-10 -45 0
-6 -46 0
-7 -47 0
-8 -48 0
-9 -49 0
-10 -50 0
-6 -56 0
-7 -57 0
-8 -58 0
-9 -59 0
-10 -60 0
-6 -71 0
-7 -72 0
-8 -73 0
-9 -74 0
-10 -75 0
-6 -86 0
-7 -87 0
-8 -88 0
-9 -89 0
-10 -90 0
-6 -91 0
-7 -92 0
-8 -93 0
-9 -94 0
-10 -95 0
-6 -111 0
-7 -112 0
-8 -113 0
-9 -114 0
-10 -115 0
-6 -121 0
-7 -122 0
-8 -123 0
-9 -124 0
-10 -125 0
-6 -146 0
-7 -147 0
-8 -148 0
-9 -149 0
-10 -150 0
-6 -151 0
-7 -152 0
-8 -153 0
-9 -154 0
-10 -155 0
-6 -156 0
-7 -157 0
-8 -158 0
-9 -159 0
-10 -160 0
-6 -176 0
-7 -177 0
-8 -178 0
-9 -179 0
-10 -180 0
-6 -181 0
-7 -182 0
-8 -183 0
-9 -184 0
-10 -185 0
-6 -191 0
-7 -192 0
-8 -193 0
-9 -194 0
-10 -195 0
-11 -21 0
-12 -22 0
-13 -23 0
-14 -24 0
-15 -25 0
-11 -51 0
-12 -52 0
-13 -53 0
-14 -54 0
-15 -55 0
-11 -61 0
-12 -62 0
-13 -63 0
-14 -64 0
-15 -65 0
-11 -81 0
-12 -82 0
-13 -83 0
-14 -84 0
-15 -85 0
-11 -91 0
-12 -92 0
-13 -93 0
-14 -94 0
-15 -95 0
-11 -101 0
-12 -102 0
-13 -103 0
-14 -104 0
-15 -105 0
-11 -106 0
-12 -107 0
-13 -108 0
-14 -109 0
-15 -110 0
-11 -111 0
-12 -112 0
-13 -113 0
-14 -114 0
-15 -115 0
-11 -116 0
-12 -117 0
-13 -118 0
-14 -119 0
-15 -120 0
-11 -141 0
-12 -142 0
-13 -143 0
-14 -144 0
-15 -145 0
-11 -146 0
-12 -147 0
-13 -148 0
-14 -149 0
-15 -150 0
-11 -151 0
-12 -152 0
-13 -153 0
-14 -154 0
-15 -155 0
-11 -161 0
-12 -162 0
-13 -163 0
-14 -164 0
-15 -165 0
-11 -171 0
-12 -172 0
-13 -173 0
-14 -174 0
-15 -175 0
-11 -181 0
-12 -182 0
-13 -183 0
-14 -184 0
-15 -185 0
-16 -26 0
-17 -27 0
-18 -28 0
-19 -29 0
-20 -30 0
-16 -31 0
-17 -32 0
-18 -33 0
-19 -34 0
-20 -35 0
-16 -36 0
-17 -37 0
-18 -38 0
-19 -39 0
-20 -40 0
-16 -41 0
-17 -42 0
-18 -43 0
-19 -44 0
-20 -45 0
-16 -46 0
-17 -47 0
-18 -48 0
-19 -49 0
-20 -50 0
-16 -61 0
-17 -62 0
-18 -63 0
-19 -64 0
-20 -65 0
-16 -66 0
-17 -67 0
-18 -68 0
-19 -69 0
-20 -70 0
-16 -71 0
-17 -72 0
-18 -73 0
-19 -74 0
-20 -75 0
-16 -76 0
-17 -77 0
-18 -78 0
-19 -79 0
-20 -80 0
-16 -81 0
-17 -82 0
-18 -83 0
-19 -84 0
-20 -85 0
-16 -91 0
-17 -92 0
-18 -93 0
-19 -94 0
-20 -95 0
-16 -96 0
-17 -97 0
-18 -98 0
-19 -99 0
-20 -100 0
-16 -101 0
-17 -102 0
-18 -103 0
-19 -104 0
-20 -105 0
-16 -116 0
-17 -117 0
-18 -118 0
-19 -119 0
-20 -120 0
-16 -121 0
-17 -122 0
-18 -123 0
-19 -124 0
-20 -125 0
-16 -131 0
-17 -132 0
-18 -133 0
-19 -134 0
-20 -135 0
-16 -136 0
-17 -137 0
-18 -138 0
-19 -139 0
-20 -140 0
-16 -146 0
-17 -147 0
-18 -148 0
-19 -149 0
-20 -150 0
-16 -151 0
-17 -152 0
-18 -153 0
-19 -154 0
-20 -155 0
-16 -156 0
-17 -157 0
-18 -158 0
-19 -159 0
-20 -160 0
-16 -166 0
-17 -167 0
-18 -168 0
-19 -169 0
-20 -170 0
-16 -181 0
-17 -182 0
-18 -183 0
-19 -184 0
-20 -185 0
-16 -186 0
-17 -187 0
-18 -188 0
-19 -189 0
-20 -190 0
-16 -191 0
-17 -192 0
-18 -193 0
-19 -194 0
-20 -195 0
-21 -36 0
-22 -37 0
-23 -38 0
-24 -39 0
-25 -40 0
-21 -51 0
-22 -52 0
-23 -53 0
-24 -54 0
-25 -55 0
-21 -56 0
-22 -57 0
-23 -58 0
-24 -59 0
-25 -60 0
-21 -76 0
-22 -77 0
-23 -78 0
-24 -79 0
-25 -80 0
-21 -81 0
-22 -82 0
-23 -83 0
-24 -84 0
-25 -85 0
-21 -86 0
-22 -87 0
-23 -88 0
-24 -89 0
-25 -90 0
-21 -91 0
-22 -92 0
-23 -93 0
-24 -94 0
-25 -95 0
-21 -96 0
-22 -97 0
-23 -98 0
-24 -99 0
-25 -100 0
-21 -101 0
-22 -102 0
-23 -103 0
-24 -104 0
-25 -105 0
-21 -116 0
-22 -117 0
-23 -118 0
-24 -119 0
-25 -120 0
-21 -141 0
-22 -142 0
-23 -143 0
-24 -144 0
-25 -145 0
-21 -146 0
-22 -147 0
-23 -148 0
-24 -149 0
-25 -150 0
-21 -166 0
-22 -167 0
-23 -168 0
-24 -169 0
-25 -170 0
-21 -171 0
-22 -172 0
-23 -173 0
-24 -174 0
-25 -175 0
-21 -181 0
-22 -182 0
-23 -183 0
-24 -184 0
-25 -185 0
-26 -31 0
-27 -32 0
-28 -33 0
-29 -34 0
-30 -35 0
-26 -36 0
-27 -37 0
-28 -38 0
-29 -39 0
-30 -40 0
-26 -41 0
-27 -42 0
-28 -43 0
-29 -44 0
-30 -45 0
-26 -51 0
-27 -52 0
-28 -53 0
-29 -54 0
-30 -55 0
-26 -61 0
-27 -62 0
-28 -63 0
-29 -64 0
-30 -65 0
-26 -71 0
-27 -72 0
-28 -73 0
-29 -74 0
-30 -75 0
-26 -81 0
-27 -82 0
-28 -83 0
-29 -84 0
-30 -85 0
-26 -86 0
-27 -87 0
-28 -88 0
-29 -89 0
-30 -90 0
-26 -91 0
-27 -92 0
-28 -93 0
-29 -94 0
-30 -95 0
-26 -96 0
-27 -97 0
-28 -98 0
-29 -99 0
-30 -100 0
-26 -101 0
-27 -102 0
-28 -103 0
-29 -104 0
-30 -105 0
-26 -106 0
-27 -107 0
-28 -108 0
-29 -109 0
-30 -110 0
-26 -116 0
-27 -117 0
-28 -118 0
-29 -119 0
-30 -120 0
-26 -126 0
-27 -127 0
-28 -128 0
-29 -129 0
-30 -130 0
-26 -131 0
-27 -132 0
-28 -133 0
-29 -134 0
-30 -135 0
-26 -136 0
-27 -137 0
-28 -138 0
-29 -139 0
-30 -140 0
-26 -146 0
-27 -147 0
-28 -148 0
-29 -149 0
-30 -150 0
-26 -156 0
-27 -157 0
-28 -158 0
-29 -159 0
-30 -160 0
-26 -181 0
-27 -182 0
-28 -183 0
-29 -184 0
-30 -185 0
-26 -196 0
-27 -197 0
-28 -198 0
-29 -199 0
-30 -200 0
-31 -36 0
-32 -37 0
-33 -38 0
-34 -39 0
-35 -40 0
-31 -41 0
-32 -42 0
-33 -43 0
-34 -44 0
-35 -45 0
-31 -46 0
-32 -47 0
-33 -48 0
-34 -49 0
-35 -50 0
-31 -61 0
-32 -62 0
-33 -63 0
-34 -64 0
-35 -65 0
-31 -66 0
-32 -67 0
-33 -68 0
-34 -69 0
-35 -70 0
-31 -71 0
-32 -72 0
-33 -73 0
-34 -74 0
-35 -75 0
-31 -86 0
-32 -87 0
-33 -88 0
-34 -89 0
-35 -90 0
-31 -91 0
-32 -92 0
-33 -93 0
-34 -94 0
-35 -95 0
-31 -96 0
-32 -97 0
-33 -98 0
-34 -99 0
-35 -100 0
-31 -101 0
-32 -102 0
-33 -103 0
-34 -104 0
-35 -105 0
-31 -106 0
-32 -107 0
-33 -108 0
-34 -109 0
-35 -110 0
-31 -131 0
-32 -132 0
-33 -133 0
-34 -134 0
-35 -135 0
-31 -141 0
-32 -142 0
-33 -143 0
-34 -144 0
-35 -145 0
-31 -151 0
-32 -152 0
-33 -153 0
-34 -154 0
-35 -155 0
-31 -161 0
-32 -162 0
-33 -163 0
-34 -164 0
-35 -165 0
-31 -176 0
-32 -177 0
-33 -178 0
-34 -179 0
-35 -180 0
-31 -186 0
-32 -187 0
-33 -188 0
-34 -189 0
-35 -190 0
-31 -196 0
-32 -197 0
-33 -198 0
-34 -199 0
-35 -200 0
-36 -41 0
-37 -42 0
-38 -43 0
-39 -44 0
-40 -45 0
-36 -46 0
-37 -47 0
-38 -48 0
-39 -49 0
-40 -50 0
-36 -66 0
-37 -67 0
-38 -68 0
-39 -69 0
-40 -70 0
-36 -71 0
-37 -72 0
-38 -73 0
-39 -74 0
-40 -75 0
-36 -76 0
-37 -77 0
-38 -78 0
-39 -79 0
-40 -80 0
-36 -101 0
-37 -102 0
-38 -103 0
-39 -104 0
-40 -105 0
-36 -116 0
-37 -117 0
-38 -118 0
-39 -119 0
-40 -120 0
-36 -126 0
-37 -127 0
-38 -128 0
-39 -129 0
-40 -130 0
-36 -136 0
-37 -137 0
-38 -138 0
-39 -139 0
-40 -140 0
-36 -146 0
-37 -147 0
-38 -148 0
-39 -149 0
-40 -150 0
-36 -151 0
-37 -152 0
-38 -153 0
-39 -154 0
-40 -155 0
-36 -156 0
-37 -157 0
-38 -158 0
-39 -159 0
-40 -160 0
-36 -176 0
-37 -177 0
-38 -178 0
-39 -179 0
-40 -180 0
-36 -181 0
-37 -182 0
-38 -183 0
-39 -184 0
-40 -185 0
-36 -196 0
-37 -197 0
-38 -198 0
-39 -199 0
-40 -200 0
-41 -61 0
-42 -62 0
-43 -63 0
-44 -64 0
-45 -65 0
-41 -71 0
-42 -72 0
-43 -73 0
-44 -74 0
-45 -75 0
-41 -81 0
-42 -82 0
-43 -83 0
-44 -84 0
-45 -85 0
-41 -86 0
-42 -87 0
-43 -88 0
-44 -89 0
-45 -90 0
-41 -101 0
-42 -102 0
-43 -103 0
-44 -104 0
-45 -105 0
-41 -111 0
-42 -112 0
-43 -113 0
-44 -114 0
-45 -115 0
-41 -116 0
-42 -117 0
-43 -118 0
-44 -119 0
-45 -120 0
-41 -121 0
-42 -122 0
-43 -123 0
-44 -124 0
-45 -125 0
-41 -126 0
-42 -127 0
-43 -128 0
-44 -129 0
-45 -130 0
-41 -136 0
-42 -137 0
-43 -138 0
-44 -139 0
-45 -140 0
-41 -151 0
-42 -152 0
-43 -153 0
-44 -154 0
-45 -155 0
-41 -166 0
-42 -167 0
-43 -168 0
-44 -169 0
-45 -170 0
-41 -196 0
-42 -197 0
-43 -198 0
-44 -199 0
-45 -200 0
-46 -61 0
-47 -62 0
-48 -63 0
-49 -64 0
-50 -65 0
-46 -66 0
-47 -67 0
-48 -68 0
-49 -69 0
-50 -70 0
-46 -71 0
-47 -72 0
-48 -73 0
-49 -74 0
-50 -75 0
-46 -86 0
-47 -87 0
-48 -88 0
-49 -89 0
-50 -90 0
-46 -91 0
-47 -92 0
-48 -93 0
-49 -94 0
-50 -95 0
-46 -96 0
-47 -97 0
-48 -98 0
-49 -99 0
-50 -100 0
-46 -111 0
-47 -112 0
-48 -113 0
-49 -114 0
-50 -115 0
-46 -136 0
-47 -137 0
-48 -138 0
-49 -139 0
-50 -140 0
-46 -156 0
-47 -157 0
-48 -158 0
-49 -159 0
-50 -160 0
-46 -161 0
-47 -162 0
-48 -163 0
-49 -164 0
-50 -165 0
-46 -171 0
-47 -172 0
-48 -173 0
-49 -174 0
-50 -175 0
-46 -181 0
-47 -182 0
-48 -183 0
-49 -184 0
-50 -185 0
-46 -196 0
-47 -197 0
-48 -198 0
-49 -199 0
-50 -200 0
-51 -56 0
-52 -57 0
-53 -58 0
-54 -59 0
-55 -60 0
-51 -61 0
-52 -62 0
-53 -63 0
-54 -64 0
-55 -65 0
-51 -76 0
-52 -77 0
-53 -78 0
-54 -79 0
-55 -80 0
-51 -81 0
-52 -82 0
-53 -83 0
-54 -84 0
-55 -85 0
-51 -96 0
-52 -97 0
-53 -98 0
-54 -99 0
-55 -100 0
-51 -101 0
-52 -102 0
-53 -103 0
-54 -104 0
-55 -105 0
-51 -111 0
-52 -112 0
-53 -113 0
-54 -114 0
-55 -115 0
-51 -116 0
-52 -117 0
-53 -118 0
-54 -119 0
-55 -120 0
-51 -126 0
-52 -127 0
-53 -128 0
-54 -129 0
-55 -130 0
-51 -131 0
-52 -132 0
-53 -133 0
-54 -134 0
-55 -135 0
-51 -141 0
-52 -142 0
-53 -143 0
-54 -144 0
-55 -145 0
-51 -151 0
-52 -152 0
-53 -153 0
-54 -154 0
-55 -155 0
-51 -156 0
-52 -157 0
-53 -158 0
-54 -159 0
-55 -160 0
-51 -186 0
-52 -187 0
-53 -188 0
-54 -189 0
-55 -190 0
-51 -191 0
-52 -192 0
-53 -193 0
-54 -194 0
-55 -195 0
-51 -196 0
-52 -197 0
-53 -198 0
-54 -199 0
-55 -200 0
-56 -66 0
-57 -67 0
-58 -68 0
-59 -69 0
-60 -70 0
-56 -76 0
-57 -77 0
-58 -78 0
-59 -79 0
-60 -80 0
-56 -91 0
-57 -92 0
-58 -93 0
-59 -94 0
-60 -95 0
-56 -101 0
-57 -102 0
-58 -103 0
-59 -104 0
-60 -105 0
-56 -106 0
-57 -107 0
-58 -108 0
-59 -109 0
-60 -110 0
-56 -121 0
-57 -122 0
-58 -123 0
-59 -124 0
-60 -125 0
-56 -136 0
-57 -137 0
-58 -138 0
-59 -139 0
-60 -140 0
-56 -166 0
-57 -167 0
-58 -168 0
-59 -169 0
-60 -170 0
-56 -171 0
-57 -172 0
-58 -173 0
-59 -174 0
-60 -175 0
-56 -181 0
-57 -182 0
-58 -183 0
-59 -184 0
-60 -185 0
-56 -186 0
-57 -187 0
-58 -188 0
-59 -189 0
-60 -190 0
-61 -66 0
-62 -67 0
-63 -68 0
-64 -69 0
-65 -70 0
-61 -71 0
-62 -72 0
-63 -73 0
-64 -74 0
-65 -75 0
-61 -76 0
-62 -77 0
-63 -78 0
-64 -79 0
-65 -80 0
-61 -81 0
-62 -82 0
-63 -83 0
-64 -84 0
-65 -85 0
-61 -96 0
-62 -97 0
-63 -98 0
-64 -99 0
-65 -100 0
-61 -101 0
-62 -102 0
-63 -103 0
-64 -104 0
-65 -105 0
-61 -106 0
-62 -107 0
-63 -108 0
-64 -109 0
-65 -110 0
-61 -136 0
-62 -137 0
-63 -138 0
-64 -139 0
-65 -140 0
-61 -151 0
-62 -152 0
-63 -153 0
-64 -154 0
-65 -155 0
-61 -161 0
-62 -162 0
-63 -163 0
-64 -164 0
-65 -165 0
-61 -171 0
-62 -172 0
-63 -173 0
-64 -174 0
-65 -175 0
-61 -176 0
-62 -177 0
-63 -178 0
-64 -179 0
-65 -180 0
-66 -71 0
-67 -72 0
-68 -73 0
-69 -74 0
-70 -75 0
-66 -81 0
-67 -82 0
-68 -83 0
-69 -84 0
-70 -85 0
-66 -86 0
-67 -87 0
-68 -88 0
-69 -89 0
-70 -90 0
-66 -91 0
-67 -92 0
-68 -93 0
-69 -94 0
-70 -95 0
-66 -96 0
-67 -97 0
-68 -98 0
-69 -99 0
-70 -100 0
-66 -116 0
-67 -117 0
-68 -118 0
-69 -119 0
-70 -120 0
-66 -121 0
-67 -122 0
-68 -123 0
-69 -124 0
-70 -125 0
-66 -131 0
-67 -132 0
-68 -133 0
-69 -134 0
-70 -135 0
-66 -141 0
-67 -142 0
-68 -143 0
-69 -144 0
-70 -145 0
-66 -146 0
-67 -147 0
-68 -148 0
-69 -149 0
-70 -150 0
-66 -171 0
-67 -172 0
-68 -173 0
-69 -174 0
-70 -175 0
-66 -176 0
-67 -177 0
-68 -178 0
-69 -179 0
-70 -180 0
-66 -186 0
-67 -187 0
-68 -188 0
-69 -189 0
-70 -190 0
-66 -191 0
-67 -192 0
-68 -193 0
-69 -194 0
-70 -195 0
-71 -76 0
-72 -77 0
-73 -78 0
-74 -79 0
-75 -80 0
-71 -86 0
-72 -87 0
-73 -88 0
-74 -89 0
-75 -90 0
-71 -91 0
-72 -92 0
-73 -93 0
-74 -94 0
-75 -95 0
-71 -101 0
-72 -102 0
-73 -103 0
-74 -104 0
-75 -105 0
-71 -121 0
-72 -122 0
-73 -123 0
-74 -124 0
-75 -125 0
-71 -131 0
-72 -132 0
-73 -133 0
-74 -134 0
-75 -135 0
-71 -141 0
-72 -142 0
-73 -143 0
-74 -144 0
-75 -145 0
-71 -146 0
-72 -147 0
-73 -148 0
-74 -149 0
-75 -150 0
-71 -156 0
-72 -157 0
-73 -158 0
-74 -159 0
-75 -160 0
-71 -161 0
-72 -162 0
-73 -163 0
-74 -164 0
-75 -165 0
-71 -166 0
-72 -167 0
-73 -168 0
-74 -169 0
-75 -170 0
-71 -196 0
-72 -197 0
-73 -198 0
-74 -199 0
-75 -200 0
-76 -96 0
-77 -97 0
-78 -98 0
-79 -99 0
-80 -100 0
-76 -106 0
-77 -107 0
-78 -108 0
-79 -109 0
-80 -110 0
-76 -111 0
-77 -112 0
-78 -113 0
-79 -114 0
-80 -115 0
-76 -116 0
-77 -117 0
-78 -118 0
-79 -119 0
-80 -120 0
-76 -141 0
-77 -142 0
-78 -143 0
-79 -144 0
-80 -145 0
-76 -146 0
-77 -147 0
-78 -148 0
-79 -149 0
-80 -150 0
-76 -161 0
-77 -162 0
-78 -163 0
-79 -164 0
-80 -165 0
-76 -176 0
-77 -177 0
-78 -178 0
-79 -179 0
-80 -180 0
-76 -186 0
-77 -187 0
-78 -188 0
-79 -189 0
-80 -190 0
-81 -86 0
-82 -87 0
-83 -88 0
-84 -89 0
-85 -90 0
-81 -91 0
-82 -92 0
-83 -93 0
-84 -94 0
-85 -95 0
-81 -96 0
-82 -97 0
-83 -98 0
-84 -99 0
-85 -100 0
-81 -106 0
-82 -107 0
-83 -108 0
-84 -109 0
-85 -110 0
-81 -111 0
-82 -112 0
-83 -113 0
-84 -114 0
-85 -115 0
-81 -116 0
-82 -117 0
-83 -118 0
-84 -119 0
-85 -120 0
-81 -121 0
-82 -122 0
-83 -123 0
-84 -124 0
-85 -125 0
-81 -136 0
-82 -137 0
-83 -138 0
-84 -139 0
-85 -140 0
-81 -141 0
-82 -142 0
-83 -143 0
-84 -144 0
-85 -145 0
-81 -146 0
-82 -147 0
-83 -148 0
-84 -149 0
-85 -150 0
-81 -151 0
-82 -152 0
-83 -153 0
-84 -154 0
-85 -155 0
-81 -156 0
-82 -157 0
-83 -158 0
-84 -159 0
-85 -160 0
-81 -161 0
-82 -162 0
-83 -163 0
-84 -164 0
-85 -165 0
-81 -166 0
-82 -167 0
-83 -168 0
-84 -169 0
-85 -170 0
-81 -176 0
-82 -177 0
-83 -178 0
-84 -179 0
-85 -180 0
-81 -181 0
-82 -182 0
-83 -183 0
-84 -184 0
-85 -185 0
-81 -191 0
-82 -192 0
-83 -193 0
-84 -194 0
-85 -195 0
-86 -101 0
-87 -102 0
-88 -103 0
-89 -104 0
-90 -105 0
-86 -106 0
-87 -107 0
-88 -108 0
-89 -109 0
-90 -110 0
-86 -111 0
-87 -112 0
-88 -113 0
-89 -114 0
-90 -115 0
-86 -121 0
-87 -122 0
-88 -123 0
-89 -124 0
-90 -125 0
-86 -126 0
-87 -127 0
-88 -128 0
-89 -129 0
-90 -130 0
-86 -131 0
-87 -132 0
-88 -133 0
-89 -134 0
-90 -135 0
-86 -136 0
-87 -137 0
-88 -138 0
-89 -139 0
-90 -140 0
-86 -141 0
-87 -142 0
-88 -143 0
-89 -144 0
-90 -145 0
-86 -151 0
-87 -152 0
-88 -153 0
-89 -154 0
-90 -155 0
-86 -166 0
-87 -167 0
-88 -168 0
-89 -169 0
-90 -170 0
-86 -176 0
-87 -177 0
-88 -178 0
-89 -179 0
-90 -180 0
-86 -186 0
-87 -187 0
-88 -188 0
-89 -189 0
-90 -190 0
-91 -101 0
-92 -102 0
-93 -103 0
-94 -104 0
-95 -105 0
-91 -106 0
-92 -107 0
-93 -108 0
-94 -109 0
-95 -110 0
-91 -111 0
-92 -112 0
-93 -113 0
-94 -114 0
-95 -115 0
-91 -181 0
-92 -182 0
-93 -183 0
-94 -184 0
-95 -185 0
-91 -186 0
-92 -187 0
-93 -188 0
-94 -189 0
-95 -190 0
-96 -101 0
-97 -102 0
-98 -103 0
-99 -104 0
-100 -105 0
-96 -106 0
-97 -107 0
-98 -108 0
-99 -109 0
-100 -110 0
-96 -116 0
-97 -117 0
-98 -118 0
-99 -119 0
-100 -120 0
-96 -126 0
-97 -127 0
-98 -128 0
-99 -129 0
-100 -130 0
-96 -131 0
-97 -132 0
-98 -133 0
-99 -134 0
-100 -135 0
-96 -146 0
-97 -147 0
-98 -148 0
-99 -149 0
-100 -150 0
-96 -156 0
-97 -157 0
-98 -158 0
-99 -159 0
-100 -160 0
-96 -161 0
-97 -162 0
-98 -163 0
-99 -164 0
-100 -165 0
-96 -166 0
-97 -167 0
-98 -168 0
-99 -169 0
-100 -170 0
-96 -171 0
-97 -172 0
-98 -173 0
-99 -174 0
-100 -175 0
-96 -176 0
-97 -177 0
-98 -178 0
-99 -179 0
-100 -180 0
-96 -186 0
-97 -187 0
-98 -188 0
-99 -189 0
-100 -190 0
-101 -111 0
-102 -112 0
-103 -113 0
-104 -114 0
-105 -115 0
-101 -121 0
-102 -122 0
-103 -123 0
-104 -124 0
-105 -125 0
-101 -131 0
-102 -132 0
-103 -133 0
-104 -134 0
-105 -135 0
-101 -136 0
-102 -137 0
-103 -138 0
-104 -139 0
-105 -140 0
-101 -141 0
-102 -142 0
-103 -143 0
-104 -144 0
-105 -145 0
-101 -146 0
-102 -147 0
-103 -148 0
-104 -149 0
-105 -150 0
-101 -151 0
-102 -152 0
-103 -153 0
-104 -154 0
-105 -155 0
-101 -156 0
-102 -157 0
-103 -158 0
-104 -159 0
-105 -160 0
-101 -161 0
-102 -162 0
-103 -163 0
-104 -164 0
-105 -165 0
-101 -176 0
-102 -177 0
-103 -178 0
-104 -179 0
-105 -180 0
-106 -116 0
-107 -117 0
-108 -118 0
-109 -119 0
-110 -120 0
-106 -126 0
-107 -127 0
-108 -128 0
-109 -129 0
-110 -130 0
-106 -131 0
-107 -132 0
-108 -133 0
-109 -134 0
-110 -135 0
-106 -136 0
-107 -137 0
-108 -138 0
-109 -139 0
-110 -140 0
-106 -146 0
-107 -147 0
-108 -148 0
-109 -149 0
-110 -150 0
-106 -181 0
-107 -182 0
-108 -183 0
-109 -184 0
-110 -185 0
-106 -191 0
-107 -192 0
-108 -193 0
-109 -194 0
-110 -195 0
-111 -116 0
-112 -117 0
-113 -118 0
-114 -119 0
-115 -120 0
-111 -121 0
-112 -122 0
-113 -123 0
-114 -124 0
-115 -125 0
-111 -131 0
-112 -132 0
-113 -133 0
-114 -134 0
-115 -135 0
-111 -136 0
-112 -137 0
-113 -138 0
-114 -139 0
-115 -140 0
-111 -146 0
-112 -147 0
-113 -148 0
-114 -149 0
-115 -150 0
-111 -151 0
-112 -152 0
-113 -153 0
-114 -154 0
-115 -155 0
-111 -156 0
-112 -157 0
-113 -158 0
-114 -159 0
-115 -160 0
-111 -161 0
-112 -162 0
-113 -163 0
-114 -164 0
-115 -165 0
-111 -166 0
-112 -167 0
-113 -168 0
-114 -169 0
-115 -170 0
-111 -171 0
-112 -172 0
-113 -173 0
-114 -174 0
-115 -175 0
-111 -181 0
-112 -182 0
-113 -183 0
-114 -184 0
-115 -185 0
-111 -186 0
-112 -187 0
-113 -188 0
-114 -189 0
-115 -190 0
-116 -121 0
-117 -122 0
-118 -123 0
-119 -124 0
-120 -125 0
-116 -131 0
-117 -132 0
-118 -133 0
-119 -134 0
-120 -135 0
-116 -141 0
-117 -142 0
-118 -143 0
-119 -144 0
-120 -145 0
-116 -171 0
-117 -172 0
-118 -173 0
-119 -174 0
-120 -175 0
-116 -176 0
-117 -177 0
-118 -178 0
-119 -179 0
-120 -180 0
-116 -181 0
-117 -182 0
-118 -183 0
-119 -184 0
-120 -185 0
-116 -186 0
-117 -187 0
-118 -188 0
-119 -189 0
-120 -190 0
-116 -191 0
-117 -192 0
-118 -193 0
-119 -194 0
-120 -195 0
-116 -196 0
-117 -197 0
-118 -198 0
-119 -199 0
-120 -200 0
-121 -136 0
-122 -137 0
-123 -138 0
-124 -139 0
-125 -140 0
-121 -141 0
-122 -142 0
-123 -143 0
-124 -144 0
-125 -145 0
-121 -146 0
-122 -147 0
-123 -148 0
-124 -149 0
-125 -150 0
-121 -156 0
-122 -157 0
-123 -158 0
-124 -159 0
-125 -160 0
-121 -161 0
-122 -162 0
-123 -163 0
-124 -164 0
-125 -165 0
-121 -171 0
-122 -172 0
-123 -173 0
-124 -174 0
-125 -175 0
-121 -191 0
-122 -192 0
-123 -193 0
-124 -194 0
-125 -195 0
-121 -196 0
-122 -197 0
-123 -198 0
-124 -199 0
-125 -200 0
-126 -136 0
-127 -137 0
-128 -138 0
-129 -139 0
-130 -140 0
-126 -141 0
-127 -142 0
-128 -143 0
-129 -144 0
-130 -145 0
-126 -156 0
-127 -157 0
-128 -158 0
-129 -159 0
-130 -160 0
-126 -191 0
-127 -192 0
-128 -193 0
-129 -194 0
-130 -195 0
-126 -196 0
-127 -197 0
-128 -198 0
-129 -199 0
-130 -200 0
-131 -136 0
-132 -137 0
-133 -138 0
-134 -139 0
-135 -140 0
-131 -141 0
-132 -142 0
-133 -143 0
-134 -144 0
-135 -145 0
-131 -146 0
-132 -147 0
-133 -148 0
-134 -149 0
-135 -150 0
-131 -151 0
-132 -152 0
-133 -153 0
-134 -154 0
-135 -155 0
-131 -156 0
-132 -157 0
-133 -158 0
-134 -159 0
-135 -160 0
-131 -166 0
-132 -167 0
-133 -168 0
-134 -169 0
-135 -170 0
-131 -171 0
-132 -172 0
-133 -173 0
-134 -174 0
-135 -175 0
-131 -176 0
-132 -177 0
-133 -178 0
-134 -179 0
-135 -180 0
-131 -191 0
-132 -192 0
-133 -193 0
-134 -194 0
-135 -195 0
-131 -196 0
-132 -197 0
-133 -198 0
-134 -199 0
-135 -200 0
-136 -141 0
-137 -142 0
-138 -143 0
-139 -144 0
-140 -145 0
-136 -146 0
-137 -147 0
-138 -148 0
-139 -149 0
-140 -150 0
-136 -156 0
-137 -157 0
-138 -158 0
-139 -159 0
-140 -160 0
-136 -181 0
-137 -182 0
-138 -183 0
-139 -184 0
-140 -185 0
-136 -196 0
-137 -197 0
-138 -198 0
-139 -199 0
-140 -200 0
-141 -146 0
-142 -147 0
-143 -148 0
-144 -149 0
-145 -150 0
-141 -151 0
-142 -152 0
-143 -153 0
-144 -154 0
-145 -155 0
-141 -156 0
-142 -157 0
-143 -158 0
-144 -159 0
-145 -160 0
-141 -171 0
-142 -172 0
-143 -173 0
-144 -174 0
-145 -175 0
-141 -176 0
-142 -177 0
-143 -178 0
-144 -179 0
-145 -180 0
-141 -186 0
-142 -187 0
-143 -188 0
-144 -189 0
-145 -190 0
-141 -191 0
-142 -192 0
-143 -193 0
-144 -194 0
-145 -195 0
-141 -196 0
-142 -197 0
-143 -198 0
-144 -199 0
-145 -200 0
-146 -151 0
-147 -152 0
-148 -153 0
-149 -154 0
-150 -155 0
-146 -161 0
-147 -162 0
-148 -163 0
-149 -164 0
-150 -165 0
-146 -166 0
-147 -167 0
-148 -168 0
-149 -169 0
-150 -170 0
-146 -186 0
-147 -187 0
-148 -188 0
-149 -189 0
-150 -190 0
-146 -196 0
-147 -197 0
-148 -198 0
-149 -199 0
-150 -200 0
-151 -161 0
-152 -162 0
-153 -163 0
-154 -164 0
-155 -165 0
-151 -171 0
-152 -172 0
-153 -173 0
-154 -174 0
-155 -175 0
-151 -191 0
-152 -192 0
-153 -193 0
-154 -194 0
-155 -195 0
-156 -166 0
-157 -167 0
-158 -168 0
-159 -169 0
-160 -170 0
-156 -171 0
-157 -172 0
-158 -173 0
-159 -174 0
-160 -175 0
-156 -181 0
-157 -182 0
-158 -183 0
-159 -184 0
-160 -185 0
-161 -166 0
-162 -167 0
-163 -168 0
-164 -169 0
-165 -170 0
-161 -176 0
-162 -177 0
-163 -178 0
-164 -179 0
-165 -180 0
-161 -186 0
-162 -187 0
-163 -188 0
-164 -189 0
-165 -190 0
-161 -191 0
-162 -192 0
-163 -193 0
-164 -194 0
-165 -195 0
-171 -181 0
-172 -182 0
-173 -183 0
-174 -184 0
-175 -185 0
-171 -186 0
-172 -187 0
-173 -188 0
-174 -189 0
-175 -190 0
-171 -191 0
-172 -192 0
-173 -193 0
-174 -194 0
-175 -195 0
-176 -181 0
-177 -182 0
-178 -183 0
-179 -184 0
-180 -185 0
-176 -186 0
-177 -187 0
-178 -188 0
-179 -189 0
-180 -190 0
-176 -191 0
-177 -192 0
-178 -193 0
-179 -194 0
-180 -195 0
-176 -196 0
-177 -197 0
-178 -198 0
-179 -199 0
-180 -200 0
-181 -186 0
-182 -187 0
-183 -188 0
-184 -189 0
-185 -190 0
-181 -191 0
-182 -192 0
-183 -193 0
-184 -194 0
-185 -195 0
-186 -191 0
-187 -192 0
-188 -193 0
-189 -194 0
-190 -195 0
-186 -196 0
-187 -197 0
-188 -198 0
-189 -199 0
-190 -200 0
